
List of user-set options:

                                    Name   Value                used
                           compl_inf_tol = 1                     yes
                         constr_viol_tol = 1                     yes
                            dual_inf_tol = 1000                  yes
                           linear_solver = ma97                  yes
                              ma86_small = 1e-30                  no
                                  ma86_u = 0.0001                 no
                              ma97_order = best                  yes
                              ma97_small = 1e-30                 yes
                            ma97_switch1 = at_start              yes
                            ma97_switch2 = od_hd_reuse           yes
                                  ma97_u = 1e-06                 yes
                               ma97_umax = 0.5                   yes
                                max_iter = 1000                  yes
                    max_refinement_steps = 20                    yes
                    min_refinement_steps = 5                     yes
                                 mu_init = 1e-06                 yes
           mu_superlinear_decrease_power = 1.25                  yes
                   nlp_scaling_min_value = 1e-08                 yes
                        option_file_name = Preset_Case_71_pf.opt  yes
                             output_file = ./tmp/Preset_Case_71_pf.output  yes
                      print_user_options = yes                   yes
        required_infeasibility_reduction = 1                      no
                                     tol = 1e-08                 yes
                   warm_start_bound_frac = 1e-20                 yes
                   warm_start_bound_push = 1e-20                 yes
                   warm_start_init_point = yes                   yes
              warm_start_mult_bound_push = 1e-20                 yes
                warm_start_mult_init_max = 1e+40                 yes
             warm_start_slack_bound_frac = 1e-20                 yes
             warm_start_slack_bound_push = 1e-20                 yes

******************************************************************************
This program contains Ipopt, a library for large-scale nonlinear optimization.
 Ipopt is released as open source code under the Eclipse Public License (EPL).
         For more information visit http://projects.coin-or.org/Ipopt
******************************************************************************

This is Ipopt version 3.12.10, running with linear solver ma97.

Number of nonzeros in equality constraint Jacobian...:   123442
Number of nonzeros in inequality constraint Jacobian.:      213
Number of nonzeros in Lagrangian Hessian.............:    49069

Total number of variables............................:    31591
                     variables with only lower bounds:    12912
                variables with lower and upper bounds:    15130
                     variables with only upper bounds:        0
Total number of equality constraints.................:    31483
Total number of inequality constraints...............:       25
        inequality constraints with only lower bounds:        4
   inequality constraints with lower and upper bounds:        0
        inequality constraints with only upper bounds:       21

iter    objective    inf_pr   inf_du lg(mu)  ||d||  lg(rg) alpha_du alpha_pr  ls
   0 -5.3537109e+00 4.05e-03 1.02e+00  -6.0 0.00e+00    -  0.00e+00 0.00e+00   0
   1 -5.3630874e+00 7.12e+00 3.05e+01  -6.0 4.59e+05    -  6.80e-05 8.96e-04h  1
   2 -5.3630371e+00 7.12e+00 1.67e+02  -6.0 4.85e+03    -  1.72e-01 1.40e-04h  1
   3 -5.3588349e+00 7.10e+00 5.00e+02  -6.0 1.41e+04    -  4.04e-03 1.64e-03h  5
   4 -5.3555065e+00 7.07e+00 4.98e+02  -6.0 4.10e+03    -  5.41e-03 5.26e-03h  7
   5 -5.3537203e+00 7.05e+00 5.07e+02  -6.0 3.80e+03    -  5.39e-03 2.76e-03h  8
   6 -5.3532782e+00 7.04e+00 5.49e+02  -6.0 3.95e+03    -  1.65e-02 7.13e-04h 10
   7 -5.3530044e+00 7.04e+00 5.92e+02  -6.0 2.14e+03    -  1.47e-02 5.94e-04h 10
   8 -5.3529424e+00 7.04e+00 6.38e+02  -6.0 3.81e+03    -  1.74e-02 1.02e-04h 13
   9 -5.2936240e+00 6.26e+00 3.17e+02  -6.0 2.08e+03    -  1.90e-02 1.10e-01h  3
iter    objective    inf_pr   inf_du lg(mu)  ||d||  lg(rg) alpha_du alpha_pr  ls
  10 -5.2743030e+00 5.61e+00 2.75e+02  -6.0 2.09e+03    -  1.02e-01 1.05e-01h  3
  11 -5.2762164e+00 5.41e+00 3.40e+02  -6.0 2.01e+03    -  5.66e-02 3.51e-02h  4
  12 -5.2840296e+00 5.03e+00 2.85e+03  -6.0 1.97e+03    -  8.16e-01 7.01e-02h  3
  13 -5.3196884e+00 4.16e+00 2.51e+03  -6.0 7.93e+03    -  3.18e-01 1.74e-01h  1
  14 -5.4907095e+00 1.51e+01 3.01e+03  -6.0 2.08e+03    -  1.77e-01 4.70e-01h  1
  15 -5.6475359e+00 1.36e+01 3.68e+03  -6.0 1.64e+03    -  1.05e-01 3.85e-01h  1
  16 -5.7084693e+00 9.17e+00 2.64e+03  -6.0 1.24e+01  -4.0 4.53e-01 3.27e-01h  1
  17 -5.8357161e+00 1.31e-02 5.55e+03  -6.0 1.65e+01  -4.5 9.66e-02 1.00e+00h  1
  18 -5.8313594e+00 1.43e-02 2.09e+03  -6.0 7.00e+01  -5.0 2.27e-01 1.25e-01h  4
  19 -5.8173669e+00 8.84e-03 1.57e+03  -6.0 2.29e+01  -5.4 5.77e-01 1.00e+00H  1
iter    objective    inf_pr   inf_du lg(mu)  ||d||  lg(rg) alpha_du alpha_pr  ls
  20 -5.8400654e+00 9.26e-01 5.72e+03  -6.0 4.43e+01  -5.9 9.79e-01 1.00e+00h  1
  21 -5.8533912e+00 1.04e+00 4.89e+03  -6.0 1.65e+03    -  5.16e-01 1.56e-01h  1
  22 -5.8622536e+00 2.37e-01 9.62e+02  -6.0 8.98e+01  -6.4 1.03e-01 1.00e+00h  1
  23 -5.8658086e+00 2.26e-01 9.92e+02  -6.0 1.60e+03    -  8.64e-02 5.79e-02h  1
  24 -5.8710749e+00 1.75e-01 7.64e+02  -6.0 1.25e+02  -6.9 3.36e-01 2.55e-01f  1
  25 -5.8722715e+00 1.68e-01 3.36e+03  -6.0 1.66e+02  -7.3 1.00e+00 3.69e-02h  1
  26 -5.8802765e+00 8.52e-01 2.44e+03  -6.0 1.06e+03    -  1.51e-01 2.09e-01h  1
  27 -5.8865258e+00 7.03e-01 2.14e+03  -6.0 2.71e+02  -7.8 3.68e-01 3.00e-01h  1
  28 -5.8939447e+00 6.48e+00 1.03e+03  -6.0 1.85e+03    -  1.73e-01 3.30e-01h  1
  29 -5.8997260e+00 1.61e-01 1.50e+03  -6.0 6.28e+01  -6.5 8.20e-01 1.00e+00h  1
iter    objective    inf_pr   inf_du lg(mu)  ||d||  lg(rg) alpha_du alpha_pr  ls
  30 -5.9028574e+00 1.30e-01 8.51e+02  -6.0 7.09e+01  -7.0 3.71e-01 3.29e-01h  1
  31 -5.9098280e+00 1.63e-01 3.87e+01  -6.0 6.33e+01  -6.5 1.00e+00 1.00e+00h  1
  32 -5.9160093e+00 1.99e-01 5.63e+03  -6.0 1.05e+02  -7.0 4.38e-01 5.24e-01h  1
  33 -5.9212969e+00 1.65e-01 1.48e+08  -6.0 5.52e+01  -6.6 7.04e-04 1.00e+00h  1
  34 -5.9261116e+00 2.39e-01 5.45e+07  -6.0 1.51e+02  -7.1 9.21e-01 6.33e-01h  1
  35 -5.9311456e+00 1.44e-01 4.82e+07  -6.0 4.08e+02  -6.6 3.73e-01 1.17e-01h  1
  36 -5.9472843e+00 1.46e+00 1.47e+07  -6.0 2.71e+02  -7.1 4.37e-06 6.66e-01f  1
  37 -5.9551618e+00 1.41e+00 1.42e+07  -6.0 6.40e+03  -7.6 4.35e-02 3.48e-02h  1
  38 -5.9396063e+00 1.19e+00 1.20e+07  -6.0 2.65e+02  -7.2 5.78e-02 1.56e-01h  2
  39 -5.9413983e+00 2.35e+00 8.21e+06  -6.0 1.31e+03  -7.6 1.68e-01 3.14e-01h  1
iter    objective    inf_pr   inf_du lg(mu)  ||d||  lg(rg) alpha_du alpha_pr  ls
  40 -6.0156958e+00 1.26e+01 4.94e+06  -6.0 5.14e+03    -  1.33e-03 3.98e-01h  1
  41 -6.0156894e+00 1.26e+01 4.93e+06  -6.0 2.54e+01  -1.8 5.65e-04 2.77e-03h  1
  42 -6.0157524e+00 1.26e+01 4.92e+06  -6.0 6.37e+01  -2.3 9.26e-04 1.10e-03h  1
  43 -6.0085120e+00 1.11e+01 4.34e+06  -6.0 1.28e+01  -2.8 1.21e-05 1.19e-01h  1
  44 -6.0084471e+00 1.10e+01 4.30e+06  -6.0 1.37e+01  -1.4 6.34e-03 9.21e-03h  1
  45 -6.0081031e+00 1.08e+01 4.25e+06  -6.0 1.27e+01  -1.9 1.13e-02 1.15e-02h  1
  46 -5.9839733e+00 5.17e+00 2.03e+06  -6.0 1.15e+01  -2.4 9.11e-02 5.23e-01h  1
  47 -5.9738801e+00 2.23e+00 8.73e+05  -6.0 5.51e+00  -2.9 8.55e-01 5.69e-01h  1
  48 -5.9724478e+00 1.02e+00 4.01e+05  -6.0 2.95e+00  -3.3 1.00e+00 5.41e-01h  1
  49 -5.9724755e+00 9.15e-01 3.59e+05  -6.0 2.34e+00  -3.8 1.00e+00 1.05e-01h  1
iter    objective    inf_pr   inf_du lg(mu)  ||d||  lg(rg) alpha_du alpha_pr  ls
  50 -5.9728393e+00 7.92e-01 3.10e+05  -6.0 3.86e+00  -4.3 1.00e+00 1.34e-01h  1
  51 -5.9781191e+00 1.84e-01 8.06e+01  -6.0 6.53e+00  -4.8 7.41e-01 1.00e+00h  1
  52 -5.9800166e+00 1.38e-01 1.75e+01  -6.0 9.05e+00  -5.2 1.00e+00 5.90e-01h  1
  53 -5.9928661e+00 2.75e+00 3.06e+01  -6.0 4.07e+03    -  2.19e-02 8.96e-02h  1
  54 -5.9939893e+00 2.69e+00 2.72e+03  -6.0 1.30e+03    -  8.64e-01 2.04e-02h  1
  55 -6.0127479e+00 2.35e+00 2.17e+03  -6.0 1.41e+03    -  5.49e-01 3.68e-01h  1
  56 -6.0163355e+00 2.32e+00 5.56e+03  -6.0 6.49e+02    -  9.72e-01 3.81e-01h  1
  57 -6.0201543e+00 2.11e+00 5.51e+03  -6.0 5.36e+02    -  6.05e-01 4.04e-01h  1
  58 -6.0243462e+00 1.88e+00 1.23e+04  -6.0 4.79e+02    -  8.34e-01 4.35e-01h  1
  59 -6.0253579e+00 1.76e+00 1.80e+04  -6.0 1.70e+03    -  2.35e-01 7.38e-02h  1
iter    objective    inf_pr   inf_du lg(mu)  ||d||  lg(rg) alpha_du alpha_pr  ls
  60 -6.0346456e+00 2.32e+00 5.35e+03  -6.0 4.53e+02    -  8.04e-01 7.66e-01h  1
  61 -6.0367220e+00 2.16e+00 2.98e+03  -6.0 1.03e+03    -  7.23e-02 8.56e-02h  1
  62 -6.0492960e+00 5.22e+00 5.58e+04  -6.0 7.35e+02    -  4.76e-01 8.02e-01h  1
  63r-6.0492960e+00 5.22e+00 1.00e+03   0.6 0.00e+00    -  0.00e+00 4.99e-07R  2
  64r-6.0707584e+00 5.22e+00 1.00e+03   0.6 4.10e+04    -  1.57e-06 6.70e-07f  1
  65 -6.0682094e+00 4.41e+00 2.53e+05  -6.0 2.33e+02    -  1.75e-03 1.58e-01h  1
  66 -6.0641678e+00 3.15e+00 1.76e+05  -6.0 1.73e+02    -  1.59e-01 2.94e-01h  1
  67 -6.0616818e+00 2.36e+00 1.32e+05  -6.0 1.07e+02    -  5.67e-01 2.53e-01h  1
  68 -6.0578899e+00 1.13e+00 6.30e+04  -6.0 3.94e+00  -3.9 4.90e-01 5.21e-01h  1
  69 -6.0562591e+00 5.96e-01 3.32e+04  -6.0 1.61e+00  -4.4 9.34e-01 4.73e-01h  1
iter    objective    inf_pr   inf_du lg(mu)  ||d||  lg(rg) alpha_du alpha_pr  ls
  70 -6.0546212e+00 9.65e-05 1.98e+00  -6.0 4.93e-01  -4.0 9.84e-01 1.00e+00h  1
  71 -6.0639592e+00 2.95e-01 1.72e+01  -6.0 1.26e+02    -  7.89e-01 8.01e-01h  1
  72 -6.0623667e+00 9.56e-03 4.91e+03  -6.0 1.27e+01  -4.4 8.57e-01 1.00e+00h  1
  73 -6.0627726e+00 5.04e-04 8.63e-01  -6.0 3.30e+00  -4.9 1.00e+00 1.00e+00h  1
  74 -6.0628542e+00 1.25e-03 3.62e-01  -6.0 5.41e+00  -5.4 1.00e+00 1.00e+00h  1
  75 -6.0637924e+00 6.91e-03 2.17e-01  -6.0 1.27e+01  -5.9 1.00e+00 1.00e+00h  1
  76 -6.0660670e+00 3.55e-02 7.30e-01  -6.0 3.53e+01  -6.4 1.00e+00 1.00e+00h  1
  77 -6.0726956e+00 4.65e-01 2.32e+00  -6.0 1.28e+02  -6.8 1.00e+00 1.00e+00h  1
  78 -6.0836202e+00 1.35e+00 6.94e+00  -6.0 3.78e+02  -7.3 5.72e-01 5.32e-01h  1
  79 -6.0867400e+00 1.03e+00 2.06e+05  -6.0 2.52e+02    -  7.43e-01 1.00e+00h  1
iter    objective    inf_pr   inf_du lg(mu)  ||d||  lg(rg) alpha_du alpha_pr  ls
  80 -6.0922999e+00 8.60e-01 1.60e+05  -6.0 7.34e+02  -7.8 2.08e-01 1.76e-01h  1
  81 -6.0929421e+00 8.07e-01 1.12e+05  -6.0 2.71e+02  -7.4 5.29e-06 9.76e-02H  1
  82 -6.0885289e+00 2.94e-02 7.41e+05  -6.0 4.14e+01  -7.8 4.33e-04 1.00e+00h  1
  83 -6.0889421e+00 3.64e-02 4.34e+05  -6.0 4.69e+01  -7.4 3.28e-01 1.00e+00h  1
  84 -6.0891843e+00 1.95e-02 2.78e+04  -6.0 4.13e+01  -7.0 9.35e-01 1.00e+00h  1
  85 -6.0894252e+00 3.90e-03 4.55e-01  -6.0 1.82e+01  -6.6 1.00e+00 1.00e+00h  1
  86 -6.0904423e+00 1.00e-01 1.08e+00  -6.0 7.76e+01  -7.0 1.00e+00 1.00e+00h  1
  87 -6.1133751e+00 2.36e+01 2.37e+02  -6.0 3.29e+03  -7.5 5.68e-02 3.62e-01h  1
  88 -6.1339861e+00 9.86e+00 9.05e+02  -6.0 2.91e+03    -  1.12e-01 6.85e-01h  1
  89 -6.1499954e+00 7.14e+01 1.29e+02  -6.0 2.33e+03    -  3.94e-01 9.51e-01h  1
iter    objective    inf_pr   inf_du lg(mu)  ||d||  lg(rg) alpha_du alpha_pr  ls
  90 -6.1547794e+00 3.85e+01 5.07e+03  -6.0 1.61e+03    -  2.03e-04 1.00e+00h  1
  91 -6.1497008e+00 1.99e+01 2.74e+01  -6.0 1.12e+03  -8.0 5.94e-01 1.00e+00h  1
  92 -6.1497067e+00 1.85e+01 1.47e+01  -6.0 1.80e+02  -7.6 1.16e-01 7.31e-02h  1
  93 -6.1498294e+00 1.81e+01 3.07e+01  -6.0 1.86e+03    -  9.71e-04 1.92e-02h  1
  94 -6.1498224e+00 1.79e+01 3.14e+01  -6.0 1.37e+01  -5.3 2.83e-02 1.52e-02h  1
  95 -6.1521210e+00 1.95e+01 7.35e+02  -6.0 1.67e+03    -  1.63e-03 4.93e-01f  1
  96 -6.1504850e+00 5.35e-03 1.20e+00  -6.0 1.76e+00  -5.8 1.00e+00 1.00e+00h  1
  97 -6.1507070e+00 5.65e-03 5.83e+00  -6.0 7.70e+00  -6.3 6.26e-01 1.00e+00h  1
  98 -6.1516228e+00 1.21e+00 7.04e+01  -6.0 1.21e+03    -  8.05e-01 2.33e-01h  1
  99 -6.1528531e+00 8.40e+00 9.51e+01  -6.0 7.47e+02    -  5.76e-01 1.00e+00h  1
iter    objective    inf_pr   inf_du lg(mu)  ||d||  lg(rg) alpha_du alpha_pr  ls
 100 -6.1523924e+00 2.75e+00 5.11e+01  -6.0 9.17e+01    -  1.00e+00 6.78e-01h  1
 101 -6.1521490e+00 3.42e-02 3.05e-03  -6.0 2.72e+01    -  1.00e+00 1.00e+00h  1
 102 -6.1521484e+00 5.23e-05 7.17e-05  -6.0 8.38e-01    -  1.00e+00 1.00e+00h  1
 103 -6.1521484e+00 2.85e-10 1.73e-10  -6.0 3.40e-04    -  1.00e+00 1.00e+00h  1
 104 -6.1522162e+00 1.36e-02 5.95e+01  -7.5 3.71e+01    -  9.55e-01 7.49e-01h  1
 105 -6.1522228e+00 3.30e-03 1.09e+01  -7.5 9.91e+00    -  1.00e+00 8.50e-01h  1
 106 -6.1522228e+00 3.68e-05 2.00e-02  -7.5 1.44e+00    -  1.00e+00 1.00e+00h  1
 107 -6.1522228e+00 2.86e-10 2.90e-09  -7.5 1.12e-03    -  1.00e+00 1.00e+00h  1
 108 -6.1522244e+00 1.86e-05 6.70e-01  -9.0 1.21e+00    -  9.23e-01 8.50e-01h  1
 109 -6.1522247e+00 5.85e-07 4.26e-01  -9.0 1.82e-01    -  8.92e-01 1.00e+00f  1
iter    objective    inf_pr   inf_du lg(mu)  ||d||  lg(rg) alpha_du alpha_pr  ls
 110 -6.1522247e+00 2.94e-10 1.66e-08  -9.0 4.30e-05    -  1.00e+00 1.00e+00h  1
 111 -6.1522247e+00 2.85e-10 2.43e-10  -9.0 1.06e-05    -  1.00e+00 1.00e+00h  1

Number of Iterations....: 111

                                   (scaled)                 (unscaled)
Objective...............:  -4.8064255302682097e+00   -6.1522246787433081e+00
Dual infeasibility......:   2.4263366320517493e-10    3.1057108890262393e-10
Constraint violation....:   2.8545895432597473e-10    2.8545895432597473e-10
Complementarity.........:   9.2178266232538901e-10    1.1798818077764978e-09
Overall NLP error.......:   9.2178266232538901e-10    1.1798818077764978e-09


Number of objective function evaluations             = 200
Number of objective gradient evaluations             = 112
Number of equality constraint evaluations            = 200
Number of inequality constraint evaluations          = 200
Number of equality constraint Jacobian evaluations   = 113
Number of inequality constraint Jacobian evaluations = 113
Number of Lagrangian Hessian evaluations             = 111
Total CPU secs in IPOPT (w/o function evaluations)   =    250.235
Total CPU secs in NLP function evaluations           =      5.107

EXIT: Optimal Solution Found.
